unsat
(define-fun skel ((n178 Bool) (n165 Bool) (n152 Bool) (n116 Bool) (n103 Bool)) Bool (and n178 (and n165 (and n152 (and n116 n103)))))
0.83user 0.00system 0:00.85elapsed 97%CPU (0avgtext+0avgdata 30844maxresident)k
8inputs+8outputs (0major+2497minor)pagefaults 0swaps
